p cnf 25 68
a 1 14 0
e 2 3 4 5 6 7 8 9 10 11 12 13 15 16 17 18 19 20 21 22 23 24 25 0
1 -2 -3 0
-1 2 -3 0
1 2 3 0
-1 -2 3 0
-2 1 -5 0
2 -1 -5 0
-2 -1 5 0
2 1 5 0
6 -4 0
6 5 0
4 -5 -6 0
-3 -6 -7 0
3 6 -7 0
-3 6 7 0
3 -6 7 0
-9 -2 0
-9 8 0
2 -8 9 0
10 -7 0
10 -9 0
7 9 -10 0
-11 -2 -12 0
11 2 -12 0
-11 2 12 0
11 -2 12 0
13 -12 0
13 -4 0
12 4 -13 0
-14 10 0
-14 -13 0
-10 13 14 0
-3 6 -15 0
3 -6 -15 0
-3 -6 15 0
3 6 15 0
-14 15 -16 0
14 -15 -16 0
-14 -15 16 0
14 15 16 0
6 -1 -17 0
-6 1 -17 0
6 1 17 0
-6 -1 17 0
-6 18 -19 0
6 -18 -19 0
-6 -18 19 0
6 18 19 0
20 17 0
20 -19 0
-17 19 -20 0
-16 20 -21 0
16 -20 -21 0
-16 -20 21 0
16 20 21 0
-24 22 0
-24 23 0
-22 -23 24 0
21 24 -25 0
-21 -24 -25 0
21 -24 25 0
-21 24 25 0
1 -20 -12 -6 -25 0
9 -12 -1 -18 0
-15 -18 0
6 2 13 5 20 -11 24 4 0
21 16 -3 24 -19 4 0
13 16 -14 22 11 2 0
25 0
